7
0, 731, 681, 786, 685, 133, 884
731, 0, 354, 357, 907, 620, 328
681, 354, 0, 692, 1108, 624, 681
786, 357, 692, 0, 659, 653, 131
685, 907, 1108, 659, 0, 605, 789
133, 620, 624, 653, 605, 0, 753
884, 328, 681, 131, 789, 753, 0
